
List of user-set options:

                                    Name   Value                used
                           compl_inf_tol = 1                     yes
                         constr_viol_tol = 1                     yes
                            dual_inf_tol = 1000                  yes
                           linear_solver = ma97                  yes
                              ma86_small = 1e-30                  no
                                  ma86_u = 0.0001                 no
                              ma97_order = best                  yes
                              ma97_small = 1e-30                 yes
                            ma97_switch1 = at_start              yes
                            ma97_switch2 = od_hd_reuse           yes
                                  ma97_u = 1e-06                 yes
                               ma97_umax = 0.5                   yes
                                max_iter = 1000                  yes
                    max_refinement_steps = 20                    yes
                    min_refinement_steps = 5                     yes
                                 mu_init = 1e-06                 yes
           mu_superlinear_decrease_power = 1.25                  yes
                   nlp_scaling_min_value = 1e-08                 yes
                        option_file_name = Preset_Case_4_pf.opt  yes
                             output_file = ./tmp/Preset_Case_4_pf.output  yes
                      print_user_options = yes                   yes
        required_infeasibility_reduction = 1                      no
                                     tol = 1e-08                 yes
                   warm_start_bound_frac = 1e-20                 yes
                   warm_start_bound_push = 1e-20                 yes
                   warm_start_init_point = yes                   yes
              warm_start_mult_bound_push = 1e-20                 yes
                warm_start_mult_init_max = 1e+40                 yes
             warm_start_slack_bound_frac = 1e-20                 yes
             warm_start_slack_bound_push = 1e-20                 yes

******************************************************************************
This program contains Ipopt, a library for large-scale nonlinear optimization.
 Ipopt is released as open source code under the Eclipse Public License (EPL).
         For more information visit http://projects.coin-or.org/Ipopt
******************************************************************************

This is Ipopt version 3.12.10, running with linear solver ma97.

Number of nonzeros in equality constraint Jacobian...:   123442
Number of nonzeros in inequality constraint Jacobian.:      213
Number of nonzeros in Lagrangian Hessian.............:    49069

Total number of variables............................:    31591
                     variables with only lower bounds:    12912
                variables with lower and upper bounds:    15130
                     variables with only upper bounds:        0
Total number of equality constraints.................:    31483
Total number of inequality constraints...............:       25
        inequality constraints with only lower bounds:        4
   inequality constraints with lower and upper bounds:        0
        inequality constraints with only upper bounds:       21

iter    objective    inf_pr   inf_du lg(mu)  ||d||  lg(rg) alpha_du alpha_pr  ls
   0 -5.0833733e+00 4.02e-03 1.02e+00  -6.0 0.00e+00    -  0.00e+00 0.00e+00   0
   1 -5.0826324e+00 4.01e-03 1.02e+00  -6.0 2.30e+05    -  2.75e-04 4.07e-05h  6
   2 -5.0840419e+00 3.90e-03 7.87e+00  -6.0 3.66e+03    -  3.63e-02 2.18e-03h  1
   3 -5.1220158e+00 1.91e+01 3.36e+01  -6.0 2.28e+04    -  2.32e-02 4.57e-02f  1
   4 -5.1343112e+00 1.88e+01 5.10e+01  -6.0 3.62e+03    -  1.62e-01 2.03e-02h  1
   5 -5.2279483e+00 1.67e+01 3.18e+02  -6.0 3.03e+03    -  7.58e-02 1.61e-01h  1
   6 -5.2278759e+00 1.62e+01 3.10e+02  -6.0 6.20e+00  -4.0 6.29e-02 3.13e-02h  1
   7 -5.2328841e+00 6.33e-03 2.17e+02  -6.0 1.24e+01  -4.5 1.40e-01 1.00e+00h  1
   8 -5.2620285e+00 3.11e-02 1.32e+02  -6.0 3.55e+01  -5.0 3.52e-01 9.16e-01h  1
   9 -5.5259116e+00 8.49e+00 2.83e+03  -6.0 9.55e+01  -5.4 4.52e-01 7.89e-01h  1
iter    objective    inf_pr   inf_du lg(mu)  ||d||  lg(rg) alpha_du alpha_pr  ls
  10 -5.4827234e+00 2.86e+00 8.88e+02  -6.0 7.74e+01  -5.9 2.14e-01 7.03e-01h  1
  11 -5.4856909e+00 2.80e+00 8.71e+02  -6.0 1.13e+04    -  5.83e-02 1.92e-02h  1
  12 -5.4919167e+00 2.67e+00 8.31e+02  -6.0 4.32e+03    -  3.10e-01 4.61e-02h  2
  13 -5.4926397e+00 2.65e+00 8.25e+02  -6.0 1.61e+04    -  1.00e-01 7.24e-03h  5
  14 -5.4941273e+00 2.61e+00 8.13e+02  -6.0 5.12e+03    -  4.65e-02 1.54e-02h  5
  15 -5.4949929e+00 2.59e+00 8.05e+02  -6.0 9.12e+03    -  2.13e-01 9.40e-03h  5
  16 -5.4962779e+00 2.55e+00 7.94e+02  -6.0 4.04e+03    -  8.47e-02 1.44e-02h  5
  17 -5.5135521e+00 1.00e+01 6.39e+02  -6.0 3.41e+03    -  6.33e-01 2.03e-01h  1
  18r-5.5135521e+00 1.00e+01 9.99e+02   0.8 0.00e+00  -6.4 0.00e+00 1.20e-08R  7
  19r-5.5327902e+00 1.00e+01 9.99e+02   0.8 3.21e+06    -  7.14e-07 1.62e-07f  1
iter    objective    inf_pr   inf_du lg(mu)  ||d||  lg(rg) alpha_du alpha_pr  ls
  20 -5.6381532e+00 1.83e+01 6.51e+02  -6.0 2.96e+06    -  2.78e-04 2.26e-03h  1
  21 -5.8279040e+00 2.08e+01 6.50e+02  -6.0 1.69e+06    -  7.01e-04 9.84e-04f  1
  22 -6.3678384e+00 8.09e+01 8.05e+02  -6.0 9.04e+05    -  1.08e-02 7.55e-03h  1
  23 -6.4475675e+00 8.07e+01 8.07e+02  -6.0 3.34e+05    -  1.01e-05 2.97e-03h  1
  24 -6.6109553e+00 8.00e+01 8.46e+02  -6.0 1.74e+05    -  1.34e-03 8.60e-03h  1
  25 -6.6266883e+00 7.92e+01 8.38e+02  -6.0 8.74e+04    -  2.84e-03 1.07e-02h  1
  26 -6.6417013e+00 7.86e+01 8.32e+02  -6.0 5.00e+04    -  1.60e-03 7.25e-03h  1
  27 -6.6986097e+00 7.74e+01 3.31e+03  -6.0 8.88e+04    -  5.06e-03 9.82e-03h  1
  28 -6.7077959e+00 7.70e+01 3.77e+03  -6.0 4.96e+04    -  9.90e-03 5.20e-03h  1
  29 -6.7043986e+00 7.62e+01 3.72e+03  -6.0 9.81e+02  -6.9 3.95e-02 1.01e-02h  1
iter    objective    inf_pr   inf_du lg(mu)  ||d||  lg(rg) alpha_du alpha_pr  ls
  30 -6.7110575e+00 7.52e+01 5.11e+03  -6.0 3.82e+04    -  2.51e-04 1.16e-02h  1
  31 -6.6467703e+00 6.68e+01 3.06e+03  -6.0 1.14e+03  -7.3 7.24e-02 1.10e-01h  1
  32r-6.6467703e+00 6.68e+01 9.99e+02   1.1 0.00e+00    -  0.00e+00 3.91e-07R  5
  33r-6.6730736e+00 6.68e+01 9.99e+02   1.1 3.43e+07    -  5.45e-07 1.26e-07f  1
  34 -6.7172484e+00 6.66e+01 2.01e+02  -6.0 3.90e+06    -  2.33e-04 6.80e-04h  1
  35 -6.7393842e+00 6.64e+01 1.72e+02  -6.0 1.61e+05    -  7.32e-06 2.31e-03h  1
  36 -6.7602307e+00 6.59e+01 3.96e+02  -6.0 8.54e+04    -  2.48e-03 7.03e-03h  1
  37 -6.7630673e+00 6.59e+01 3.98e+02  -6.0 2.22e+05    -  3.62e-03 8.93e-04h  1
  38 -6.7406934e+00 6.41e+01 4.08e+02  -6.0 3.03e+03  -7.8 2.52e-03 2.72e-02h  1
  39 -6.7450061e+00 6.41e+01 4.10e+02  -6.0 1.69e+06    -  1.60e-06 1.90e-04h  1
iter    objective    inf_pr   inf_du lg(mu)  ||d||  lg(rg) alpha_du alpha_pr  ls
  40 -6.7446626e+00 6.41e+01 4.10e+02  -6.0 3.82e+03  -8.3 4.79e-03 3.25e-04h  1
  41 -6.7489026e+00 6.38e+01 4.26e+02  -6.0 7.07e+03  -8.8 1.50e-03 3.84e-03f  1
  42 -6.7484090e+00 6.38e+01 4.26e+02  -6.0 8.63e+03  -9.2 1.30e-04 5.32e-04h  1
  43 -6.7426757e+00 6.31e+01 4.21e+02  -6.0 3.79e+04  -9.7 3.73e-02 1.07e-02h  2
  44 -6.7410514e+00 6.30e+01 4.20e+02  -6.0 1.84e+04  -9.3 2.45e-02 1.66e-03h  5
  45 -6.7398857e+00 6.29e+01 4.21e+02  -6.0 4.79e+03  -8.9 9.83e-02 9.44e-04h  7
  46 -6.7398182e+00 6.29e+01 4.21e+02  -6.0 2.44e+04  -9.4 3.82e-02 7.55e-05h  9
  47 -6.6396716e+00 5.79e+01 3.79e+02  -6.0 5.46e+03  -8.9 8.13e-02 8.13e-02s 19
  48 -6.5864036e+00 5.55e+01 3.68e+02  -6.0 5.57e+03    -  4.07e-02 4.07e-02s 19
  49 -6.5177656e+00 5.26e+01 3.65e+02  -6.0 4.43e+03    -  5.30e-02 5.30e-02s 19
iter    objective    inf_pr   inf_du lg(mu)  ||d||  lg(rg) alpha_du alpha_pr  ls
  50 -6.5036977e+00 5.20e+01 3.63e+02  -6.0 2.68e+03  -9.4 1.12e-02 1.12e-02s 19
  51 -6.2923086e+00 4.32e+01 1.38e+03  -6.0 2.59e+03  -9.9 3.27e-01 0.00e+00S 19
  52 -6.1552654e+00 3.77e+01 1.43e+03  -6.0 3.07e+03    -  2.11e-01 1.30e-01h  1
  53 -5.8110166e+00 2.44e+01 5.20e+04  -6.0 2.67e+03    -  1.34e-01 3.70e-01h  1
  54 -5.6806303e+00 1.89e+01 5.01e+04  -6.0 1.66e+03  -7.6 6.58e-04 2.32e-01h  1
  55 -5.6407243e+00 1.71e+01 3.65e+04  -6.0 1.37e+03  -8.1 2.82e-03 9.68e-02h  1
  56 -5.5768091e+00 1.31e+01 4.37e+04  -6.0 1.94e+03  -7.7 3.32e-02 2.41e-01h  2
  57 -5.5138745e+00 9.90e+00 3.49e+04  -6.0 9.53e+01  -6.4 1.90e-01 2.46e-01h  1
  58 -5.3467640e+00 1.43e+00 2.57e+04  -6.0 2.43e+02  -6.8 1.50e-01 9.06e-01h  1
  59 -5.3478622e+00 1.43e+00 2.42e+04  -6.0 1.49e+04    -  7.69e-02 1.22e-03h  1
iter    objective    inf_pr   inf_du lg(mu)  ||d||  lg(rg) alpha_du alpha_pr  ls
  60 -5.3903302e+00 2.43e+00 2.22e+04  -6.0 1.37e+04    -  1.02e-01 5.04e-02f  1
  61 -5.4310214e+00 2.71e+00 1.52e+04  -6.0 6.10e+03    -  5.85e-01 1.31e-01h  2
  62 -5.5179090e+00 3.38e+00 7.89e+03  -6.0 4.64e+03    -  2.92e-01 4.73e-01h  1
  63 -5.5216404e+00 2.68e+00 6.20e+03  -6.0 2.35e+03    -  1.58e-01 2.12e-01h  1
  64 -5.5247216e+00 1.93e+00 4.24e+03  -6.0 2.17e+03    -  5.96e-02 3.14e-01h  1
  65 -5.5246834e+00 2.02e+00 4.12e+03  -6.0 3.24e+03    -  4.00e-01 3.14e-02h  5
  66 -5.5232078e+00 2.41e+00 1.37e+03  -6.0 1.46e+03    -  3.34e-01 8.36e-01h  1
  67 -5.5159140e+00 2.80e+00 8.05e+01  -6.0 4.47e+02    -  3.69e-01 1.00e+00h  1
  68 -5.5169471e+00 4.32e+00 5.48e-01  -6.0 5.56e+02    -  1.00e+00 1.00e+00h  1
  69 -5.5166282e+00 7.97e-01 2.26e-01  -6.0 2.33e+02    -  1.00e+00 1.00e+00h  1
iter    objective    inf_pr   inf_du lg(mu)  ||d||  lg(rg) alpha_du alpha_pr  ls
  70 -5.5165133e+00 5.60e-04 2.79e-04  -6.0 7.05e+00    -  1.00e+00 1.00e+00h  1
  71 -5.5165133e+00 1.29e-07 1.47e-08  -6.0 7.76e-02    -  1.00e+00 1.00e+00h  1
  72 -5.5167472e+00 4.74e+00 3.93e+01  -7.5 1.03e+03    -  6.69e-01 5.34e-01h  1
  73 -5.5168383e+00 5.80e+00 7.19e+00  -7.5 6.54e+02    -  8.10e-01 8.58e-01h  1
  74 -5.5167993e+00 2.76e-01 2.59e+01  -7.5 1.18e+02    -  1.46e-01 1.00e+00h  1
  75 -5.5167975e+00 5.20e-02 1.54e-02  -7.5 5.25e+01    -  1.00e+00 1.00e+00h  1
  76 -5.5167974e+00 2.82e-05 3.03e-05  -7.5 1.28e+00    -  1.00e+00 1.00e+00h  1
  77 -5.5167974e+00 2.79e-08 7.78e-09  -7.5 3.86e-02    -  1.00e+00 1.00e+00h  1
  78 -5.5167991e+00 2.08e-02 1.60e+00  -9.0 4.41e+01    -  9.31e-01 7.57e-01h  1
  79 -5.5167994e+00 1.24e-03 5.63e-02  -9.0 8.10e+00    -  9.87e-01 1.00e+00h  1
iter    objective    inf_pr   inf_du lg(mu)  ||d||  lg(rg) alpha_du alpha_pr  ls
  80 -5.5167994e+00 4.06e-09 6.55e-09  -9.0 1.35e-02    -  1.00e+00 1.00e+00h  1

Number of Iterations....: 80

                                   (scaled)                 (unscaled)
Objective...............:  -4.3099995602672125e+00   -5.5167994371420317e+00
Dual infeasibility......:   6.5491778769231268e-09    8.3829476824616017e-09
Constraint violation....:   2.8203241829813592e-09    4.0599843487143517e-09
Complementarity.........:   1.4030796323142558e-09    1.7959419293622475e-09
Overall NLP error.......:   6.5491778769231268e-09    8.3829476824616017e-09


Number of objective function evaluations             = 171
Number of objective gradient evaluations             = 81
Number of equality constraint evaluations            = 171
Number of inequality constraint evaluations          = 171
Number of equality constraint Jacobian evaluations   = 83
Number of inequality constraint Jacobian evaluations = 83
Number of Lagrangian Hessian evaluations             = 80
Total CPU secs in IPOPT (w/o function evaluations)   =    101.733
Total CPU secs in NLP function evaluations           =      2.008

EXIT: Optimal Solution Found.
